DIMENSION: 23
NODE_COORD_SECTION
1 -759.0717299578 -283.6795252226
2 423.5364396655 -223.1620039037
3 -248.0231436837 491.4518317503
4 251.4246947083 -5960.3174603175
5 260.1948503827 -200.0000000000
6 1028.1368821293 -195.7397812320
7 7772.9729729730 -256.5066109951
8 375.9871931697 1276.3713080169
9 604.7095761381 87.6130828114
10 537.2997711670 1865.0793650794
11 191.7884481559 -259.8371777476
12 3342.8571428571 -292.2659430122
13 102.2964509395 -273.4693877551
14 -687.0722433460 22.1860767729
15 16.8249660787 -39.4019349164
16 -5075.6756756757 1315.8730158730
17 408.4124830393 1984.1269841270
18 -1312.1673003802 478.0219780220
19 -322.5237449118 -78.9199739753
20 13.6442141623 -714.8975791434
21 88.8888888889 8064.8648648649
22 192.5178919974 -649.6932515337
23 2234.9693251534 227.9329608939
EOF